15
Fukui flat z=0 from /home/prokop/SIMULATIONS/Fukui_AFM/pyscf_fukui_cluster/benzoicacid_dimer_PBE_def2-SVP/rho_N.cube
O      1.3306070000    5.8861240000    0.0000000000
H      2.3006990000   10.6243780000    0.0000000000
C      0.1373040000    6.4795330000    0.0000000000
O     -0.9207970000    5.8208850000    0.0000000000
H     -1.9937170000    8.1251180000    0.0000000000
H      1.2336190000    4.8877270000    0.0000000000
H      0.1478120000   11.8626290000    0.0000000000
H      2.3043610000    8.1398120000    0.0000000000
H     -2.0025680000   10.6179970000    0.0000000000
C     -1.0587430000    8.6817250000    0.0000000000
C      0.1533160000    7.9718840000    0.0000000000
C      1.3635690000    8.6856770000    0.0000000000
C      1.3591920000   10.0790060000    0.0000000000
C      0.1487050000   10.7746590000    0.0000000000
C     -1.0599850000   10.0747710000    0.0000000000
